Problem:    problem3
Rows:       45
Columns:    25
Non-zeros:  203
Status:     OPTIMAL
Objective:  zeta = -688.4143829 (MAXimum)

   No.   Row name   St   Activity     Lower bound   Upper bound    Marginal
------ ------------ -- ------------- ------------- ------------- -------------
     1 z1           NL             0            -0                    -1.00643 
     2 z2           NL             0            -0                    -1.11399 
     3 z3           NL             0            -0                    -2.88801 
     4 z4           B        155.715            -0               
     5 z5           NL             0            -0                    -2.12793 
     6 z6           B        217.549            -0               
     7 z7           NL             0            -0                    -1.24233 
     8 z8           NL             0            -0                  -0.0927109 
     9 z9           NL             0            -0                    -3.40909 
    10 z10          NL             0            -0                    -3.36821 
    11 z11          NL             0            -0                    -2.09919 
    12 z12          NL             0            -0                  -0.0440134 
    13 z13          NL             0            -0                   -0.555445 
    14 z14          NL             0            -0                    -4.26599 
    15 z15          NL             0            -0                    -2.79562 
    16 z16          NL             0            -0                    -2.29952 
    17 z17          NL             0            -0                    -5.04281 
    18 z18          NL             0            -0                   -0.566993 
    19 z19          NL             0            -0                    -4.39367 
    20 z20          B        136.724            -0               
    21 z21          NL             0            -0                    -3.96224 
    22 z22          NL             0            -0                   -0.104414 
    23 z23          B        413.717            -0               
    24 z24          NL             0            -0                    -1.79834 
    25 z25          NL             0            -0                    -4.64969 
    26 minA         NL          1500          1500                  -0.0411893 
    27 minB         NL          4500          4500                   -0.118415 
    28 minC         NL          1000          1000                  -0.0815945 
    29 minD         NL           500           500                  -0.0243369 
    30 maxA         B           1500                        3500 
    31 maxB         B           4500                        6500 
    32 maxC         B           1000                        3000 
    33 maxD         B            500                        2500 
    34 minTech      B           1500            -0               
    35 minFin       B           1500            -0               
    36 minPC        B              0            -0               
    37 minAuto      B           4500            -0               
    38 maxTech      B           1500                        3000 
    39 maxFin       B           1500                        4000 
    40 maxPC        B              0                        5000 
    41 maxAuto      B           4500                        7000 
    42 minEco       B           2500          1000               
    43 maxEco       B           2500                       10000 
    44 totalToSpend B           7500                       10000 
    45 zeta         B       -688.414                             

   No. Column name  St   Activity     Lower bound   Upper bound    Marginal
------ ------------ -- ------------- ------------- ------------- -------------
     1 x1           B              0                             
     2 x2           B              0                             
     3 x3           B              0                             
     4 x4           B        155.715                             
     5 x5           B              0                             
     6 x6           B        217.549                             
     7 x7           B              0                             
     8 x8           B              0                             
     9 x9           B              0                             
    10 x10          B              0                             
    11 x11          B              0                             
    12 x12          B              0                             
    13 x13          B              0                             
    14 x14          B              0                             
    15 x15          B              0                             
    16 x16          B              0                             
    17 x17          B              0                             
    18 x18          B              0                             
    19 x19          B              0                             
    20 x20          B        136.724                             
    21 x21          B              0                             
    22 x22          B              0                             
    23 x23          B        413.717                             
    24 x24          B              0                             
    25 x25          B              0                             

Karush-Kuhn-Tucker optimality conditions:

KKT.PE: max.abs.err = 1.14e-13 on row 28
        max.rel.err = 5.68e-17 on row 28
        High quality

KKT.PB: max.abs.err = 0.00e+00 on row 0
        max.rel.err = 0.00e+00 on row 0
        High quality

KKT.DE: max.abs.err = 1.78e-15 on column 19
        max.rel.err = 2.83e-16 on column 8
        High quality

KKT.DB: max.abs.err = 0.00e+00 on row 0
        max.rel.err = 0.00e+00 on row 0
        High quality

End of output
